c SAT Generator for power-law distributed variable frequencies
c -g u -v 20 -c 91 -k 3 -p 2.750000 -b 3.200000 -f /home/schmidt/Devel/ni-kop-sat/data/ensemble/ruf20-91/ruf20-91-205 -u 1 -U 1 -s 229441083
p cnf 20 91
9 -14 19 0
-7 17 -18 0
-14 -18 -19 0
-3 -13 18 0
3 -9 -16 0
2 -7 8 0
6 -7 11 0
5 7 10 0
5 8 18 0
2 -13 15 0
-1 -8 -17 0
-5 7 -9 0
-15 19 20 0
5 -13 -15 0
11 16 -19 0
-5 -7 19 0
12 -15 17 0
7 8 -14 0
4 -8 -20 0
15 -19 20 0
-2 -3 11 0
9 10 -16 0
5 10 -15 0
3 19 20 0
-3 -8 9 0
5 10 -14 0
-1 -2 14 0
-1 13 -20 0
-5 7 20 0
-4 8 -16 0
-4 -7 13 0
3 4 -6 0
8 16 -18 0
9 12 13 0
7 8 -9 0
1 16 -17 0
-9 12 16 0
2 -3 -9 0
-2 8 17 0
3 8 9 0
-12 15 17 0
-7 10 -17 0
-1 4 18 0
4 -18 20 0
1 -6 -17 0
-7 -17 18 0
-3 -7 -19 0
-2 3 -15 0
-1 10 -16 0
11 -12 -18 0
-6 -10 13 0
12 -14 -17 0
3 -10 -16 0
2 3 -17 0
1 -3 14 0
-12 -17 -18 0
-11 -14 -16 0
3 5 -17 0
-1 -3 7 0
-5 10 12 0
-3 -9 18 0
-12 17 -19 0
-3 -17 18 0
8 13 20 0
-1 11 -12 0
2 5 -6 0
-2 12 20 0
2 3 17 0
-1 -2 11 0
-4 -6 -17 0
1 -9 10 0
3 -5 -17 0
3 8 10 0
6 -7 -16 0
-5 7 16 0
-12 14 18 0
2 -4 10 0
9 10 -19 0
-2 10 -14 0
-12 -13 17 0
3 -7 19 0
-11 17 -18 0
-3 4 9 0
-3 12 -19 0
7 16 -19 0
-10 -11 -15 0
-9 -11 -15 0
2 7 -8 0
-1 -3 16 0
-4 -6 12 0
3 -11 12 0
